14 20

4 7 10 2 13 4 3 6 2 7 15 15
3 4 15 7 2 6 5 10 10 12 6 3
11 8 2 9 12 9 19 8
19 2 14 7 13 7 3 10 2 8
15 7 7 10 18 10 5 12 16 5 3 15
20 9 13 3 15 11 1 8
13 9 10 10 17 4 15 13 2 12
5 15 2 7 18 11 9 7 20 15
17 9 11 2 16 15 4 8
7 11 14 10 13 11 15 14 4 4 19 3
4 2 19 6 16 12 18 7 2 11 14 2
7 2 18 9 16 7 6 6 12 4 14 12
1 13 16 9 13 7 2 10 4 3
6 7 16 15 19 3 2 11
